SDVRP instances/custom_instances/p02_10_splitx10_0.vrp
NAME:p02_10_splitx10_
BEST_KNOWN: 0
COMMENT: 0
DIMENSION: 348
CAPACITY: 1400
EDGE_WEIGHT_FORMAT: FUNCTION
EDGE_WEIGHT_TYPE: EXACT_2D
NODE_COORD_SECTION
1 0.00000 0.00000
2 -17 -42
3 -17 -42
4 -17 -42
5 -48 4
6 -48 4
7 -48 4
8 23 36
9 23 36
10 23 36
11 23 36
12 23 36
13 23 36
14 23 36
15 15 -46
16 15 -46
17 15 -46
18 15 -46
19 15 -46
20 15 -46
21 15 -46
22 15 -46
23 30 -5
24 30 -5
25 30 -5
26 30 -5
27 30 -5
28 -33 -7
29 -33 -7
30 -33 -7
31 -46 11
32 -46 11
33 -46 11
34 -46 11
35 -46 11
36 -1 -49
37 -1 -49
38 4 -37
39 4 -37
40 4 -37
41 -8 -24
42 -8 -24
43 -8 -24
44 -8 -24
45 -8 -24
46 -8 -24
47 -8 -24
48 12 -38
49 12 -38
50 12 -38
51 12 -38
52 12 -38
53 12 -38
54 25 -26
55 25 -26
56 25 -26
57 25 -26
58 14 42
59 14 42
60 14 42
61 14 42
62 14 42
63 19 -34
64 19 -34
65 19 -34
66 19 -34
67 21 -21
68 21 -21
69 37 -36
70 37 -36
71 37 -36
72 37 -36
73 37 -36
74 37 -36
75 14 4
76 14 4
77 14 4
78 14 4
79 -27 29
80 -27 29
81 -27 29
82 -27 29
83 -27 29
84 -27 29
85 -27 29
86 -40 -11
87 -40 -11
88 -40 -11
89 41 -44
90 41 -44
91 41 -44
92 41 -44
93 41 -44
94 41 -44
95 41 -44
96 -40 -49
97 -40 -49
98 -40 -49
99 -28 -18
100 -28 -18
101 -28 -18
102 36 -24
103 36 -24
104 36 -24
105 36 -24
106 10 -46
107 10 -46
108 10 -46
109 10 -46
110 10 -46
111 25 39
112 25 39
113 36 -39
114 36 -39
115 21 16
116 21 16
117 21 16
118 21 16
119 21 16
120 3 -32
121 3 -32
122 3 -32
123 3 -32
124 3 -32
125 3 -32
126 -37 -50
127 -37 -50
128 -37 -50
129 -37 -50
130 -37 -50
131 -32 -32
132 -32 -32
133 -32 -32
134 -32 -32
135 -32 -32
136 -32 -32
137 -32 -32
138 -47 -48
139 -47 -48
140 -47 -48
141 -47 -48
142 -47 -48
143 -47 -48
144 -47 -48
145 -47 -48
146 -20 -4
147 -20 -4
148 -20 -4
149 -20 -4
150 -20 -4
151 -20 -4
152 -20 -4
153 8 -21
154 8 -21
155 8 -21
156 8 -21
157 8 -21
158 8 -21
159 11 23
160 11 23
161 11 23
162 11 23
163 11 23
164 11 23
165 11 23
166 11 23
167 43 35
168 43 35
169 43 35
170 43 35
171 43 35
172 43 -6
173 43 -6
174 43 -6
175 41 20
176 41 20
177 41 20
178 41 20
179 41 20
180 41 20
181 4 -4
182 4 -4
183 4 -4
184 4 -4
185 4 -4
186 -8 -46
187 -8 -46
188 -8 -46
189 -8 -46
190 -35 19
191 -35 19
192 -35 19
193 3 32
194 3 32
195 3 32
196 3 32
197 3 32
198 5 -27
199 5 -27
200 5 -27
201 5 -27
202 5 -27
203 5 -27
204 5 -27
205 15 23
206 15 23
207 15 23
208 15 23
209 15 23
210 14 -11
211 14 -11
212 14 -11
213 14 -11
214 14 -11
215 14 -11
216 14 -11
217 14 -11
218 -44 -33
219 -44 -33
220 -44 -33
221 -44 -33
222 -23 22
223 -23 22
224 -23 22
225 -5 44
226 -5 44
227 -5 44
228 7 11
229 7 11
230 7 11
231 7 11
232 44 -1
233 44 -1
234 44 -1
235 44 -1
236 44 -1
237 44 -1
238 -42 5
239 -42 5
240 -42 5
241 -42 5
242 -42 5
243 -42 5
244 -42 -10
245 -42 -10
246 -42 -10
247 -42 -10
248 2 42
249 2 42
250 2 42
251 2 42
252 39 28
253 39 28
254 39 28
255 39 28
256 39 28
257 39 28
258 42 35
259 42 35
260 -50 -16
261 -50 -16
262 -50 -16
263 -50 -16
264 -50 -16
265 32 -22
266 32 -22
267 50 -44
268 50 -44
269 50 -44
270 50 -44
271 50 -44
272 50 -44
273 19 -1
274 19 -1
275 19 -1
276 19 -1
277 19 -1
278 -16 20
279 -16 20
280 -16 20
281 -16 20
282 -16 20
283 -16 20
284 -11 -44
285 -11 -44
286 -11 -44
287 -11 -44
288 20 -33
289 20 -33
290 20 -33
291 20 -33
292 20 -33
293 20 -33
294 -12 -12
295 -12 -12
296 -27 -2
297 -27 -2
298 -27 -2
299 -27 -2
300 -26 -45
301 -26 -45
302 -26 -45
303 -26 -45
304 -26 -45
305 -26 -45
306 -41 -23
307 -41 -23
308 -28 -12
309 -28 -12
310 32 16
311 32 16
312 32 16
313 32 16
314 45 -14
315 45 -14
316 28 46
317 28 46
318 -32 -29
319 -32 -29
320 -32 -29
321 -32 -29
322 15 48
323 15 48
324 15 48
325 -48 -2
326 -48 -2
327 -48 -2
328 -48 -2
329 -48 -2
330 -48 -2
331 -48 -2
332 -44 48
333 -44 48
334 -44 48
335 -44 48
336 -44 48
337 -44 48
338 -44 48
339 7 40
340 7 40
341 7 40
342 7 40
343 7 40
344 7 40
345 -40 5
346 -40 5
347 -40 5
348 -40 5
DEMAND_SECTION
1 0
2 280
3 140
4 10
5 280
6 280
7 10
8 280
9 280
10 14
11 14
12 14
13 14
14 4
15 280
16 280
17 70
18 14
19 14
20 14
21 14
22 4
23 280
24 14
25 14
26 14
27 8
28 280
29 280
30 70
31 280
32 280
33 14
34 14
35 2
36 280
37 70
38 280
39 140
40 10
41 280
42 140
43 70
44 14
45 14
46 14
47 8
48 280
49 280
50 70
51 14
52 14
53 2
54 280
55 280
56 70
57 10
58 140
59 70
60 14
61 14
62 12
63 280
64 140
65 14
66 6
67 140
68 70
69 280
70 140
71 70
72 14
73 14
74 12
75 140
76 70
77 14
78 6
79 140
80 70
81 14
82 14
83 14
84 14
85 4
86 280
87 14
88 6
89 280
90 140
91 14
92 14
93 14
94 14
95 4
96 280
97 280
98 10
99 280
100 280
101 10
102 280
103 280
104 14
105 6
106 140
107 70
108 14
109 14
110 12
111 140
112 70
113 280
114 280
115 280
116 14
117 14
118 14
119 8
120 280
121 140
122 70
123 14
124 14
125 12
126 280
127 70
128 14
129 14
130 12
131 280
132 140
133 70
134 14
135 14
136 14
137 8
138 280
139 140
140 70
141 14
142 14
143 14
144 14
145 4
146 280
147 140
148 70
149 14
150 14
151 14
152 8
153 140
154 14
155 14
156 14
157 14
158 4
159 280
160 140
161 70
162 14
163 14
164 14
165 14
166 4
167 280
168 140
169 70
170 14
171 6
172 280
173 280
174 70
175 280
176 280
177 14
178 14
179 14
180 8
181 280
182 70
183 14
184 14
185 2
186 280
187 140
188 14
189 6
190 280
191 14
192 6
193 140
194 70
195 14
196 14
197 12
198 280
199 280
200 14
201 14
202 14
203 14
204 4
205 280
206 140
207 14
208 14
209 2
210 280
211 280
212 70
213 14
214 14
215 14
216 14
217 4
218 140
219 70
220 14
221 6
222 280
223 140
224 70
225 280
226 14
227 6
228 280
229 280
230 14
231 6
232 280
233 140
234 14
235 14
236 14
237 8
238 280
239 14
240 14
241 14
242 14
243 4
244 280
245 140
246 70
247 10
248 280
249 280
250 70
251 10
252 280
253 280
254 14
255 14
256 14
257 8
258 280
259 280
260 140
261 70
262 14
263 14
264 12
265 280
266 70
267 280
268 70
269 14
270 14
271 14
272 8
273 280
274 280
275 14
276 14
277 2
278 280
279 140
280 70
281 14
282 14
283 12
284 140
285 14
286 14
287 2
288 280
289 140
290 14
291 14
292 14
293 8
294 280
295 70
296 280
297 140
298 70
299 10
300 140
301 70
302 14
303 14
304 14
305 8
306 280
307 70
308 140
309 70
310 280
311 280
312 70
313 10
314 280
315 140
316 280
317 140
318 280
319 280
320 70
321 10
322 280
323 280
324 10
325 280
326 280
327 14
328 14
329 14
330 14
331 4
332 280
333 140
334 70
335 14
336 14
337 14
338 8
339 280
340 140
341 70
342 14
343 14
344 12
345 280
346 140
347 70
348 10
DEPOT_SECTION
1
-1
EOF