SDVRP instances/custom_instances/p02_10_splitx10_0.sol
347 -3 2 1 284 283 285 286 188 186 187 185 36 35 -14 19 16 20 17 21 18 15 109 106 107 108 105 37 201 200 202 199 -22 25 172 171 173 233 234 235 236 232 231 -23 26 24 314 313 104 102 101 103 265 264 -34 31 30 33 32 242 237 238 347 346 345 344 -50 47 51 52 48 49 38 39 119 121 122 123 124 120 -54 113 112 69 71 72 68 70 73 -56 55 53 93 89 88 90 92 94 91 268 269 266 271 267 270 214 216 211 213 215 -60 61 57 59 58 322 321 323 340 343 341 339 338 342 -67 66 287 288 292 291 289 290 64 65 62 63 154 152 153 156 155 157 -77 76 75 74 275 274 276 273 272 209 210 212 -98 86 87 85 245 243 244 307 308 147 151 148 150 149 -100 99 320 318 317 319 135 136 130 132 134 294 -118 117 116 115 114 169 167 170 166 168 258 257 -133 131 97 95 96 128 127 125 129 126 300 302 301 304 299 303 -144 139 138 142 141 140 137 143 217 219 220 218 306 305 259 260 262 263 261 246 -146 145 27 29 28 295 297 -161 159 158 204 207 206 311 310 309 312 -165 162 164 160 163 193 192 194 196 195 248 250 249 247 225 224 226 -177 178 179 174 175 176 251 252 253 255 254 256 -181 183 182 180 184 -190 189 191 336 337 335 333 331 332 334 83 84 82 81 79 80 78 277 -203 197 198 42 43 40 41 46 44 45 293 -205 208 7 9 12 11 8 10 13 110 111 316 315 -222 221 223 278 280 282 281 279 229 227 228 230 -240 239 241 4 5 6 329 327 325 324 330 326 328 296 298 0 





OBJ=
2518.048
BEST_KNOWN=
0.000